Route #1: 4 45 29 5 48 30
Route #2: 27 52 34 46 8 35 7
Route #3: 26 31 55 25 9 39 12
Route #4: 58 10 38 11 53
Route #5: 14 59 19 54 13 57 15
Route #6: 37 20 60 36 47 21 61
Route #7: 22 64 42 43 41 56 23 63
Route #8: 33 1 62 28 2
Route #9: 17 3 44 32 40
Route #10: 50 18 24 49 16 51 6
Cost 830